(set-info :source |
 Generated by Alive 0.1
 More info in N. P. Lopes, D. Menendez, S. Nagarakatte, J. Regehr.
 Provably Correct Peephole Optimizations with Alive. In PLDI'15.
|)

(set-info :status unknown)
(declare-fun %Y () (_ BitVec 23))
(declare-fun %X () (_ BitVec 23))
(declare-fun u_%Op1 () (_ BitVec 8))
(assert
 (let (($x43578 (and (distinct (bvsub (_ bv0 23) (bvshl (bvsub (_ bv0 23) %X) %Y)) (bvshl %X %Y)) true)))
 (let (($x42614 (= u_%Op1 (_ bv1 8))))
 (let (($x47689 (bvult %Y (_ bv23 23))))
 (and $x47689 $x47689 $x42614 $x43578)))))
(check-sat)
